52

C      -3.418735069764406     -0.589876364601931      0.481207058030608
C      -2.100887991596591     -1.148559264522172     -0.065607855322607
C      -1.285168126478817     -1.751780694041580      1.074627397605866
C      -2.494799916187121     -2.296170522223310     -1.004335054206852
C      -1.315901748889138     -0.068178807037471     -0.905711153033971
C      -0.450928708609676      1.075073864185653     -0.296148685623103
C      -1.066846925962948      2.197326125773863      0.585587298226922
C      -0.138545559374668      3.426802059652106      0.533581279855082
C      -2.399698107185457      2.668538902640845     -0.000401623773804
C      -1.214331143163070      1.824212392726482      2.062873560836634
C       0.860925054459491      0.532502441676002      0.269536133425323
C       1.750745580916651     -0.049132307081584     -0.833163448190093
C       2.938211443335787     -0.895258996931100     -0.292457426278599
C       3.851663383195490     -1.312108209659749     -1.448628818801119
C       3.769462601122155     -0.060188175319353      0.684228027767424
C       2.448044540694234     -2.154631861431802      0.423215285522215
C       0.919373499762159     -0.761886523955563     -1.866811798445981
C      -0.407303998143031     -0.769906755558950     -1.895700861929263
H      -3.288548993937232      0.210343634611108      1.200971588370300
H      -4.033354130141118     -0.218006253722359     -0.338729187691423
H      -3.974094776453446     -1.385819229896129      0.979699286125273
H      -1.863195700698359     -2.549622658547390      1.542449676298227
H      -0.352920486734893     -2.183489160445362      0.714782022026415
H      -1.053868917403877     -1.026584589723327      1.850593110448862
H      -3.161854066979041     -2.983173875984938     -0.486390658755769
H      -1.622576371287542     -2.857127618968327     -1.329417369897286
H      -3.011562083761563     -1.927367000180075     -1.890981611676014
H      -2.095672719926080      0.419456769595068     -1.497422127194064
H      -0.162430651068997      1.630535034637382     -1.194425086062473
H       0.037473923085065      3.738419463170836     -0.494492192106593
H      -0.609449000015752      4.258263827903888      1.058659686674152
H       0.824942855585350      3.250287120376570      1.007316507514746
H      -3.164146656138031      1.899151367640083     -0.010319169103862
H      -2.784961147527427      3.508584813500404      0.577814078464272
H      -2.259819319282611      3.009466637587034     -1.027273877428851
H      -1.859015886878572      0.969409683730062      2.239798140680252
H      -0.244665616520060      1.599936340973485      2.508252141187516
H      -1.635946316041974      2.672404916973998      2.603927379684629
H       0.676160702012236     -0.209931691416930      1.038647581151883
H       1.395854670640508      1.338490400528260      0.761484342357194
H       2.207300951808076      0.801818451497379     -1.357431696894853
H       4.736358988067726     -1.814355439058925     -1.059070312754844
H       4.183126770492615     -0.443629681970633     -2.018796959349884
H       3.359402895988013     -2.000993390971749     -2.132432768092173
H       3.185435860474159      0.247130790254941      1.550486759162326
H       4.616666355477835     -0.643441480421060      1.045043847051210
H       4.160827062033273      0.834618180402472      0.197562772072920
H       1.787849707407494     -2.738621692240453     -0.216020958346208
H       3.298167710394001     -2.781741089059354      0.691480431265995
H       1.911486154869161     -1.919385680461058      1.340473277640560
H       1.450228278115947     -1.264433124500971     -2.666173785723765
H      -0.898480341371954     -1.307377216623649     -2.695959952926964
